14
4 9
4 2
4 13
4 8
4 0
4 10
4 1
4 3
4 12
4 5
4 7
9 8
9 12
9 0
9 5
9 7
9 1
9 3
9 11
9 2
9 6
3 13
3 6
3 1
3 12
3 5
3 7
3 11
3 2
3 0
13 6
13 2
13 8
13 5
13 11
13 0
13 1
13 7
13 10
5 10
5 12
5 7
5 1
5 11
5 6
5 8
10 7
10 1
10 12
10 2
10 6
10 8
10 11
10 0
8 1
8 2
8 6
8 12
8 0
8 7
2 11
2 0
2 6
2 12
2 7
11 6
11 7
11 0
11 1
11 12
6 0
6 12
6 7
7 1
12 1
12 0
1 0
